VRPTWMS/instances/mip/fuel/4/N4-C_DV100-C_SV30_F6_5_No_1.lp
\ N4-C_DV100-C_SV30_F6_5

Minimize
  108200.0 x_d0_c1 + 108200.0 z_d0_c1 + 210200.0 x_d0_c2 + 210200.0 z_d0_c2 + 197000.0 x_d0_c3 + 197000.0 z_d0_c3 + 210000.0 x_d0_c4 + 210000.0 z_d0_c4 + 308100.0 x_c1_c2 + 308100.0 x_c2_c1 + 308100.0 z_c1_c2 + 308100.0 z_c2_c1 + 304100.0 x_c1_c3 + 304100.0 x_c3_c1 + 304100.0 z_c1_c3 + 304100.0 z_c3_c1 + 284600.0 x_c1_c4 + 284600.0 x_c4_c1 + 284600.0 z_c1_c4 + 284600.0 z_c4_c1 + 76200.0 x_c2_c3 + 76200.0 x_c3_c2 + 76200.0 z_c2_c3 + 76200.0 z_c3_c2 + 290000.0 x_c2_c4 + 290000.0 x_c4_c2 + 290000.0 z_c2_c4 + 290000.0 z_c4_c2 + 222000.0 x_c3_c4 + 222000.0 x_c4_c3 + 222000.0 z_c3_c4 + 222000.0 z_c4_c3 + 108200.0 x_c1_dN + 108200.0 z_c1_dN + 210200.0 x_c2_dN + 210200.0 z_c2_dN + 197000.0 x_c3_dN + 197000.0 z_c3_dN + 210000.0 x_c4_dN + 210000.0 z_c4_dN + 1.0E7 x_d0_c1 + 1.0E7 z_d0_c1 + 1.0E7 x_d0_c2 + 1.0E7 z_d0_c2 + 1.0E7 x_d0_c3 + 1.0E7 z_d0_c3 + 1.0E7 x_d0_c4 + 1.0E7 z_d0_c4
Subject To
  Successor_DV_c1: x_c1_c2 + x_c1_c3 + x_c1_c4 + x_c1_dN = 1
  Successor_DV_c2: x_c2_c1 + x_c2_c3 + x_c2_c4 + x_c2_dN = 1
  Successor_DV_c3: x_c3_c1 + x_c3_c2 + x_c3_c4 + x_c3_dN = 1
  Successor_DV_c4: x_c4_c1 + x_c4_c2 + x_c4_c3 + x_c4_dN = 1
  Successor_SV_c1: z_c1_c2 + z_c1_c3 + z_c1_c4 + z_c1_dN <= 1
  Successor_SV_c2: z_c2_c1 + z_c2_c3 + z_c2_c4 + z_c2_dN <= 1
  Successor_SV_c3: z_c3_c1 + z_c3_c2 + z_c3_c4 + z_c3_dN <= 1
  Successor_SV_c4: z_c4_c1 + z_c4_c2 + z_c4_c3 + z_c4_dN <= 1
  Flow_DV_c1: x_d0_c1 + x_c2_c1 + x_c3_c1 + x_c4_c1 - x_c1_dN - x_c1_c2 - x_c1_c3 - x_c1_c4 = 0
  Flow_DV_c2: x_d0_c2 + x_c1_c2 + x_c3_c2 + x_c4_c2 - x_c2_dN - x_c2_c1 - x_c2_c3 - x_c2_c4 = 0
  Flow_DV_c3: x_d0_c3 + x_c1_c3 + x_c2_c3 + x_c4_c3 - x_c3_dN - x_c3_c1 - x_c3_c2 - x_c3_c4 = 0
  Flow_DV_c4: x_d0_c4 + x_c1_c4 + x_c2_c4 + x_c3_c4 - x_c4_dN - x_c4_c1 - x_c4_c2 - x_c4_c3 = 0
  Flow_SV_c1: z_d0_c1 + z_c2_c1 + z_c3_c1 + z_c4_c1 - z_c1_dN - z_c1_c2 - z_c1_c3 - z_c1_c4 = 0
  Flow_SV_c2: z_d0_c2 + z_c1_c2 + z_c3_c2 + z_c4_c2 - z_c2_dN - z_c2_c1 - z_c2_c3 - z_c2_c4 = 0
  Flow_SV_c3: z_d0_c3 + z_c1_c3 + z_c2_c3 + z_c4_c3 - z_c3_dN - z_c3_c1 - z_c3_c2 - z_c3_c4 = 0
  Flow_SV_c4: z_d0_c4 + z_c1_c4 + z_c2_c4 + z_c3_c4 - z_c4_dN - z_c4_c1 - z_c4_c2 - z_c4_c3 = 0
  travelDV_d0_c1: tauD_d0 - tauD_c1 + 1027050.0 x_d0_c1 <= 1000000.0
  travelDV_d0_c2: tauD_d0 - tauD_c2 + 1052550.0 x_d0_c2 <= 1000000.0
  travelDV_d0_c3: tauD_d0 - tauD_c3 + 1049250.0 x_d0_c3 <= 1000000.0
  travelDV_d0_c4: tauD_d0 - tauD_c4 + 1052500.0 x_d0_c4 <= 1000000.0
  travelDV_c1_c2: tauD_c1 - tauD_c2 + 1147025.0 x_c1_c2 + 80000.0 p_1 <= 1000000.0
  travelDV_c1_c3: tauD_c1 - tauD_c3 + 1146025.0 x_c1_c3 + 80000.0 p_1 <= 1000000.0
  travelDV_c1_c4: tauD_c1 - tauD_c4 + 1141150.0 x_c1_c4 + 80000.0 p_1 <= 1000000.0
  travelDV_c2_c1: tauD_c2 - tauD_c1 + 1117025.0 x_c2_c1 + 80000.0 p_2 <= 1000000.0
  travelDV_c2_c3: tauD_c2 - tauD_c3 + 1059050.0 x_c2_c3 + 80000.0 p_2 <= 1000000.0
  travelDV_c2_c4: tauD_c2 - tauD_c4 + 1112500.0 x_c2_c4 + 80000.0 p_2 <= 1000000.0
  travelDV_c3_c1: tauD_c3 - tauD_c1 + 1116025.0 x_c3_c1 + 80000.0 p_3 <= 1000000.0
  travelDV_c3_c2: tauD_c3 - tauD_c2 + 1059050.0 x_c3_c2 + 80000.0 p_3 <= 1000000.0
  travelDV_c3_c4: tauD_c3 - tauD_c4 + 1095500.0 x_c3_c4 + 80000.0 p_3 <= 1000000.0
  travelDV_c4_c1: tauD_c4 - tauD_c1 + 1121150.0 x_c4_c1 + 80000.0 p_4 <= 1000000.0
  travelDV_c4_c2: tauD_c4 - tauD_c2 + 1122500.0 x_c4_c2 + 80000.0 p_4 <= 1000000.0
  travelDV_c4_c3: tauD_c4 - tauD_c3 + 1105500.0 x_c4_c3 + 80000.0 p_4 <= 1000000.0
  TravelSV_d0_c1: tauS_d0 - tauS_c1 + 1000000.0 z_d0_c1 <= 972950.0
  TravelSV_d0_c2: tauS_d0 - tauS_c2 + 1000000.0 z_d0_c2 <= 947450.0
  TravelSV_d0_c3: tauS_d0 - tauS_c3 + 1000000.0 z_d0_c3 <= 950750.0
  TravelSV_d0_c4: tauS_d0 - tauS_c4 + 1000000.0 z_d0_c4 <= 947500.0
  TravelSV_d0_dN: tauS_d0 - tauS_dN + 1000000.0 z_d0_dN <= 1000000.0
  TravelSV_c1_c2: tauS_c1 - tauS_c2 + 1000000.0 z_c1_c2 <= 842975.0
  TravelSV_c1_c3: tauS_c1 - tauS_c3 + 1000000.0 z_c1_c3 <= 843975.0
  TravelSV_c1_c4: tauS_c1 - tauS_c4 + 1000000.0 z_c1_c4 <= 848850.0
  TravelSV_c1_dN: tauS_c1 - tauS_dN + 1000000.0 z_c1_dN <= 892950.0
  TravelSV_c2_c1: tauS_c2 - tauS_c1 + 1000000.0 z_c2_c1 <= 842975.0
  TravelSV_c2_c3: tauS_c2 - tauS_c3 + 1000000.0 z_c2_c3 <= 900950.0
  TravelSV_c2_c4: tauS_c2 - tauS_c4 + 1000000.0 z_c2_c4 <= 847500.0
  TravelSV_c2_dN: tauS_c2 - tauS_dN + 1000000.0 z_c2_dN <= 867450.0
  TravelSV_c3_c1: tauS_c3 - tauS_c1 + 1000000.0 z_c3_c1 <= 843975.0
  TravelSV_c3_c2: tauS_c3 - tauS_c2 + 1000000.0 z_c3_c2 <= 900950.0
  TravelSV_c3_c4: tauS_c3 - tauS_c4 + 1000000.0 z_c3_c4 <= 864500.0
  TravelSV_c3_dN: tauS_c3 - tauS_dN + 1000000.0 z_c3_dN <= 870750.0
  TravelSV_c4_c1: tauS_c4 - tauS_c1 + 1000000.0 z_c4_c1 <= 848850.0
  TravelSV_c4_c2: tauS_c4 - tauS_c2 + 1000000.0 z_c4_c2 <= 847500.0
  TravelSV_c4_c3: tauS_c4 - tauS_c3 + 1000000.0 z_c4_c3 <= 864500.0
  TravelSV_c4_dN: tauS_c4 - tauS_dN + 1000000.0 z_c4_dN <= 867500.0
  time_window_c1_e: tauD_c1 + 80000.0 o_1 >= 650000.0
  time_window_c1_l: tauD_c1 + 80000.0 o_1 <= 800000.0
  time_window_c2_e: tauD_c2 + 80000.0 o_2 >= 100000.0
  time_window_c2_l: tauD_c2 + 80000.0 o_2 <= 250000.0
  time_window_c3_e: tauD_c3 + 80000.0 o_3 >= 250000.0
  time_window_c3_l: tauD_c3 + 80000.0 o_3 <= 400000.0
  time_window_c4_e: tauD_c4 + 80000.0 o_4 >= 50000.0
  time_window_c4_l: tauD_c4 + 80000.0 o_4 <= 200000.0
  SyncA_c1_c2_c2: 70000.0 o_1 + 1000000.0 x_c1_c2 - tauD_c2 - 77025.0 z_c1_c2 + [ tauS_c2 * z_c1_c2 ] <= 922975.0
  SyncA_c1_c2_c3: 70000.0 o_1 + 1000000.0 x_c1_c2 - tauD_c2 - 76025.0 z_c1_c3 + [ tauS_c3 * z_c1_c3 ] <= 922975.0
  SyncA_c1_c2_c4: 70000.0 o_1 + 1000000.0 x_c1_c2 - tauD_c2 - 71150.0 z_c1_c4 + [ tauS_c4 * z_c1_c4 ] <= 922975.0
  SyncA_c1_c2_dN: 70000.0 o_1 + 1000000.0 x_c1_c2 - tauD_c2 - 27050.0 z_c1_dN + [ tauS_dN * z_c1_dN ] <= 922975.0
  SyncA_c1_c3_c2: 70000.0 o_1 + 1000000.0 x_c1_c3 - tauD_c3 - 77025.0 z_c1_c2 + [ tauS_c2 * z_c1_c2 ] <= 923975.0
  SyncA_c1_c3_c3: 70000.0 o_1 + 1000000.0 x_c1_c3 - tauD_c3 - 76025.0 z_c1_c3 + [ tauS_c3 * z_c1_c3 ] <= 923975.0
  SyncA_c1_c3_c4: 70000.0 o_1 + 1000000.0 x_c1_c3 - tauD_c3 - 71150.0 z_c1_c4 + [ tauS_c4 * z_c1_c4 ] <= 923975.0
  SyncA_c1_c3_dN: 70000.0 o_1 + 1000000.0 x_c1_c3 - tauD_c3 - 27050.0 z_c1_dN + [ tauS_dN * z_c1_dN ] <= 923975.0
  SyncA_c1_c4_c2: 70000.0 o_1 + 1000000.0 x_c1_c4 - tauD_c4 - 77025.0 z_c1_c2 + [ tauS_c2 * z_c1_c2 ] <= 928850.0
  SyncA_c1_c4_c3: 70000.0 o_1 + 1000000.0 x_c1_c4 - tauD_c4 - 76025.0 z_c1_c3 + [ tauS_c3 * z_c1_c3 ] <= 928850.0
  SyncA_c1_c4_c4: 70000.0 o_1 + 1000000.0 x_c1_c4 - tauD_c4 - 71150.0 z_c1_c4 + [ tauS_c4 * z_c1_c4 ] <= 928850.0
  SyncA_c1_c4_dN: 70000.0 o_1 + 1000000.0 x_c1_c4 - tauD_c4 - 27050.0 z_c1_dN + [ tauS_dN * z_c1_dN ] <= 928850.0
  SyncA_c1_dN_c2: 70000.0 o_1 + 1000000.0 x_c1_dN - tauD_dN - 77025.0 z_c1_c2 + [ tauS_c2 * z_c1_c2 ] <= 972950.0
  SyncA_c1_dN_c3: 70000.0 o_1 + 1000000.0 x_c1_dN - tauD_dN - 76025.0 z_c1_c3 + [ tauS_c3 * z_c1_c3 ] <= 972950.0
  SyncA_c1_dN_c4: 70000.0 o_1 + 1000000.0 x_c1_dN - tauD_dN - 71150.0 z_c1_c4 + [ tauS_c4 * z_c1_c4 ] <= 972950.0
  SyncA_c1_dN_dN: 70000.0 o_1 + 1000000.0 x_c1_dN - tauD_dN - 27050.0 z_c1_dN + [ tauS_dN * z_c1_dN ] <= 972950.0
  SyncA_c2_c1_c1: 40000.0 o_2 + 1000000.0 x_c2_c1 - tauD_c1 - 77025.0 z_c2_c1 + [ tauS_c1 * z_c2_c1 ] <= 922975.0
  SyncA_c2_c1_c3: 40000.0 o_2 + 1000000.0 x_c2_c1 - tauD_c1 - 19050.0 z_c2_c3 + [ tauS_c3 * z_c2_c3 ] <= 922975.0
  SyncA_c2_c1_c4: 40000.0 o_2 + 1000000.0 x_c2_c1 - tauD_c1 - 72500.0 z_c2_c4 + [ tauS_c4 * z_c2_c4 ] <= 922975.0
  SyncA_c2_c1_dN: 40000.0 o_2 + 1000000.0 x_c2_c1 - tauD_c1 - 52550.0 z_c2_dN + [ tauS_dN * z_c2_dN ] <= 922975.0
  SyncA_c2_c3_c1: 40000.0 o_2 + 1000000.0 x_c2_c3 - tauD_c3 - 77025.0 z_c2_c1 + [ tauS_c1 * z_c2_c1 ] <= 980950.0
  SyncA_c2_c3_c3: 40000.0 o_2 + 1000000.0 x_c2_c3 - tauD_c3 - 19050.0 z_c2_c3 + [ tauS_c3 * z_c2_c3 ] <= 980950.0
  SyncA_c2_c3_c4: 40000.0 o_2 + 1000000.0 x_c2_c3 - tauD_c3 - 72500.0 z_c2_c4 + [ tauS_c4 * z_c2_c4 ] <= 980950.0
  SyncA_c2_c3_dN: 40000.0 o_2 + 1000000.0 x_c2_c3 - tauD_c3 - 52550.0 z_c2_dN + [ tauS_dN * z_c2_dN ] <= 980950.0
  SyncA_c2_c4_c1: 40000.0 o_2 + 1000000.0 x_c2_c4 - tauD_c4 - 77025.0 z_c2_c1 + [ tauS_c1 * z_c2_c1 ] <= 927500.0
  SyncA_c2_c4_c3: 40000.0 o_2 + 1000000.0 x_c2_c4 - tauD_c4 - 19050.0 z_c2_c3 + [ tauS_c3 * z_c2_c3 ] <= 927500.0
  SyncA_c2_c4_c4: 40000.0 o_2 + 1000000.0 x_c2_c4 - tauD_c4 - 72500.0 z_c2_c4 + [ tauS_c4 * z_c2_c4 ] <= 927500.0
  SyncA_c2_c4_dN: 40000.0 o_2 + 1000000.0 x_c2_c4 - tauD_c4 - 52550.0 z_c2_dN + [ tauS_dN * z_c2_dN ] <= 927500.0
  SyncA_c2_dN_c1: 40000.0 o_2 + 1000000.0 x_c2_dN - tauD_dN - 77025.0 z_c2_c1 + [ tauS_c1 * z_c2_c1 ] <= 947450.0
  SyncA_c2_dN_c3: 40000.0 o_2 + 1000000.0 x_c2_dN - tauD_dN - 19050.0 z_c2_c3 + [ tauS_c3 * z_c2_c3 ] <= 947450.0
  SyncA_c2_dN_c4: 40000.0 o_2 + 1000000.0 x_c2_dN - tauD_dN - 72500.0 z_c2_c4 + [ tauS_c4 * z_c2_c4 ] <= 947450.0
  SyncA_c2_dN_dN: 40000.0 o_2 + 1000000.0 x_c2_dN - tauD_dN - 52550.0 z_c2_dN + [ tauS_dN * z_c2_dN ] <= 947450.0
  SyncA_c3_c1_c1: 40000.0 o_3 + 1000000.0 x_c3_c1 - tauD_c1 - 76025.0 z_c3_c1 + [ tauS_c1 * z_c3_c1 ] <= 923975.0
  SyncA_c3_c1_c2: 40000.0 o_3 + 1000000.0 x_c3_c1 - tauD_c1 - 19050.0 z_c3_c2 + [ tauS_c2 * z_c3_c2 ] <= 923975.0
  SyncA_c3_c1_c4: 40000.0 o_3 + 1000000.0 x_c3_c1 - tauD_c1 - 55500.0 z_c3_c4 + [ tauS_c4 * z_c3_c4 ] <= 923975.0
  SyncA_c3_c1_dN: 40000.0 o_3 + 1000000.0 x_c3_c1 - tauD_c1 - 49250.0 z_c3_dN + [ tauS_dN * z_c3_dN ] <= 923975.0
  SyncA_c3_c2_c1: 40000.0 o_3 + 1000000.0 x_c3_c2 - tauD_c2 - 76025.0 z_c3_c1 + [ tauS_c1 * z_c3_c1 ] <= 980950.0
  SyncA_c3_c2_c2: 40000.0 o_3 + 1000000.0 x_c3_c2 - tauD_c2 - 19050.0 z_c3_c2 + [ tauS_c2 * z_c3_c2 ] <= 980950.0
  SyncA_c3_c2_c4: 40000.0 o_3 + 1000000.0 x_c3_c2 - tauD_c2 - 55500.0 z_c3_c4 + [ tauS_c4 * z_c3_c4 ] <= 980950.0
  SyncA_c3_c2_dN: 40000.0 o_3 + 1000000.0 x_c3_c2 - tauD_c2 - 49250.0 z_c3_dN + [ tauS_dN * z_c3_dN ] <= 980950.0
  SyncA_c3_c4_c1: 40000.0 o_3 + 1000000.0 x_c3_c4 - tauD_c4 - 76025.0 z_c3_c1 + [ tauS_c1 * z_c3_c1 ] <= 944500.0
  SyncA_c3_c4_c2: 40000.0 o_3 + 1000000.0 x_c3_c4 - tauD_c4 - 19050.0 z_c3_c2 + [ tauS_c2 * z_c3_c2 ] <= 944500.0
  SyncA_c3_c4_c4: 40000.0 o_3 + 1000000.0 x_c3_c4 - tauD_c4 - 55500.0 z_c3_c4 + [ tauS_c4 * z_c3_c4 ] <= 944500.0
  SyncA_c3_c4_dN: 40000.0 o_3 + 1000000.0 x_c3_c4 - tauD_c4 - 49250.0 z_c3_dN + [ tauS_dN * z_c3_dN ] <= 944500.0
  SyncA_c3_dN_c1: 40000.0 o_3 + 1000000.0 x_c3_dN - tauD_dN - 76025.0 z_c3_c1 + [ tauS_c1 * z_c3_c1 ] <= 950750.0
  SyncA_c3_dN_c2: 40000.0 o_3 + 1000000.0 x_c3_dN - tauD_dN - 19050.0 z_c3_c2 + [ tauS_c2 * z_c3_c2 ] <= 950750.0
  SyncA_c3_dN_c4: 40000.0 o_3 + 1000000.0 x_c3_dN - tauD_dN - 55500.0 z_c3_c4 + [ tauS_c4 * z_c3_c4 ] <= 950750.0
  SyncA_c3_dN_dN: 40000.0 o_3 + 1000000.0 x_c3_dN - tauD_dN - 49250.0 z_c3_dN + [ tauS_dN * z_c3_dN ] <= 950750.0
  SyncA_c4_c1_c1: 50000.0 o_4 + 1000000.0 x_c4_c1 - tauD_c1 - 71150.0 z_c4_c1 + [ tauS_c1 * z_c4_c1 ] <= 928850.0
  SyncA_c4_c1_c2: 50000.0 o_4 + 1000000.0 x_c4_c1 - tauD_c1 - 72500.0 z_c4_c2 + [ tauS_c2 * z_c4_c2 ] <= 928850.0
  SyncA_c4_c1_c3: 50000.0 o_4 + 1000000.0 x_c4_c1 - tauD_c1 - 55500.0 z_c4_c3 + [ tauS_c3 * z_c4_c3 ] <= 928850.0
  SyncA_c4_c1_dN: 50000.0 o_4 + 1000000.0 x_c4_c1 - tauD_c1 - 52500.0 z_c4_dN + [ tauS_dN * z_c4_dN ] <= 928850.0
  SyncA_c4_c2_c1: 50000.0 o_4 + 1000000.0 x_c4_c2 - tauD_c2 - 71150.0 z_c4_c1 + [ tauS_c1 * z_c4_c1 ] <= 927500.0
  SyncA_c4_c2_c2: 50000.0 o_4 + 1000000.0 x_c4_c2 - tauD_c2 - 72500.0 z_c4_c2 + [ tauS_c2 * z_c4_c2 ] <= 927500.0
  SyncA_c4_c2_c3: 50000.0 o_4 + 1000000.0 x_c4_c2 - tauD_c2 - 55500.0 z_c4_c3 + [ tauS_c3 * z_c4_c3 ] <= 927500.0
  SyncA_c4_c2_dN: 50000.0 o_4 + 1000000.0 x_c4_c2 - tauD_c2 - 52500.0 z_c4_dN + [ tauS_dN * z_c4_dN ] <= 927500.0
  SyncA_c4_c3_c1: 50000.0 o_4 + 1000000.0 x_c4_c3 - tauD_c3 - 71150.0 z_c4_c1 + [ tauS_c1 * z_c4_c1 ] <= 944500.0
  SyncA_c4_c3_c2: 50000.0 o_4 + 1000000.0 x_c4_c3 - tauD_c3 - 72500.0 z_c4_c2 + [ tauS_c2 * z_c4_c2 ] <= 944500.0
  SyncA_c4_c3_c3: 50000.0 o_4 + 1000000.0 x_c4_c3 - tauD_c3 - 55500.0 z_c4_c3 + [ tauS_c3 * z_c4_c3 ] <= 944500.0
  SyncA_c4_c3_dN: 50000.0 o_4 + 1000000.0 x_c4_c3 - tauD_c3 - 52500.0 z_c4_dN + [ tauS_dN * z_c4_dN ] <= 944500.0
  SyncA_c4_dN_c1: 50000.0 o_4 + 1000000.0 x_c4_dN - tauD_dN - 71150.0 z_c4_c1 + [ tauS_c1 * z_c4_c1 ] <= 947500.0
  SyncA_c4_dN_c2: 50000.0 o_4 + 1000000.0 x_c4_dN - tauD_dN - 72500.0 z_c4_c2 + [ tauS_c2 * z_c4_c2 ] <= 947500.0
  SyncA_c4_dN_c3: 50000.0 o_4 + 1000000.0 x_c4_dN - tauD_dN - 55500.0 z_c4_c3 + [ tauS_c3 * z_c4_c3 ] <= 947500.0
  SyncA_c4_dN_dN: 50000.0 o_4 + 1000000.0 x_c4_dN - tauD_dN - 52500.0 z_c4_dN + [ tauS_dN * z_c4_dN ] <= 947500.0
  SVFirst_c1_c2: tauS_c2 - tauD_c1 + 70000.0 o_1 - 1000000.0 z_c1_c2 >= -772975.0
  SVFirst_c1_c3: tauS_c3 - tauD_c1 + 70000.0 o_1 - 1000000.0 z_c1_c3 >= -773975.0
  SVFirst_c1_c4: tauS_c4 - tauD_c1 + 70000.0 o_1 - 1000000.0 z_c1_c4 >= -778850.0
  SVFirst_c1_dN:  tauS_dN - tauD_c1 + 70000.0 o_1 - 1000000.0 z_c1_dN >= -822950.0
  SVFirst_c2_c1: tauS_c1 - tauD_c2 + 40000.0 o_2 - 1000000.0 z_c2_c1 >= -802975.0
  SVFirst_c2_c3: tauS_c3 - tauD_c2 + 40000.0 o_2 - 1000000.0 z_c2_c3 >= -860950.0
  SVFirst_c2_c4: tauS_c4 - tauD_c2 + 40000.0 o_2 - 1000000.0 z_c2_c4 >= -807500.0
  SVFirst_c2_dN:  tauS_dN - tauD_c2 + 40000.0 o_2 - 1000000.0 z_c2_dN >= -827450.0
  SVFirst_c3_c1: tauS_c1 - tauD_c3 + 40000.0 o_3 - 1000000.0 z_c3_c1 >= -803975.0
  SVFirst_c3_c2: tauS_c2 - tauD_c3 + 40000.0 o_3 - 1000000.0 z_c3_c2 >= -860950.0
  SVFirst_c3_c4: tauS_c4 - tauD_c3 + 40000.0 o_3 - 1000000.0 z_c3_c4 >= -824500.0
  SVFirst_c3_dN:  tauS_dN - tauD_c3 + 40000.0 o_3 - 1000000.0 z_c3_dN >= -830750.0
  SVFirst_c4_c1: tauS_c1 - tauD_c4 + 50000.0 o_4 - 1000000.0 z_c4_c1 >= -798850.0
  SVFirst_c4_c2: tauS_c2 - tauD_c4 + 50000.0 o_4 - 1000000.0 z_c4_c2 >= -797500.0
  SVFirst_c4_c3: tauS_c3 - tauD_c4 + 50000.0 o_4 - 1000000.0 z_c4_c3 >= -814500.0
  SVFirst_c4_dN:  tauS_dN - tauD_c4 + 50000.0 o_4 - 1000000.0 z_c4_dN >= -817500.0
  Precedence_Swap_c1:  p_1 - z_d0_c1 - z_c2_c1 - z_c3_c1 - z_c4_c1 = 0
  Precedence_Swap_c2:  p_2 - z_d0_c2 - z_c1_c2 - z_c3_c2 - z_c4_c2 = 0
  Precedence_Swap_c3:  p_3 - z_d0_c3 - z_c1_c3 - z_c2_c3 - z_c4_c3 = 0
  Precedence_Swap_c4:  p_4 - z_d0_c4 - z_c1_c4 - z_c2_c4 - z_c3_c4 = 0
  Order_c1:  o_1 - p_1 <= 0
  Order_c2:  o_2 - p_2 <= 0
  Order_c3:  o_3 - p_3 <= 0
  Order_c4:  o_4 - p_4 <= 0
  WorkingTimeS_c1:  tauS_c1 <= 892950.0
  WorkingTimeS_c2:  tauS_c2 <= 867450.0
  WorkingTimeS_c3:  tauS_c3 <= 870750.0
  WorkingTimeS_c4:  tauS_c4 <= 867500.0
  Freight_c1_c2:  k_c2 - k_c1 + 1000000.0 x_c1_c2 <= 960000.0
  Freight_c1_c3:  k_c3 - k_c1 + 1000000.0 x_c1_c3 <= 960000.0
  Freight_c1_c4:  k_c4 - k_c1 + 1000000.0 x_c1_c4 <= 960000.0
  Freight_c1_dN:  k_dN - k_c1 + 1000000.0 x_c1_dN <= 960000.0
  Freight_c2_c1:  k_c1 - k_c2 + 1000000.0 x_c2_c1 <= 950000.0
  Freight_c2_c3:  k_c3 - k_c2 + 1000000.0 x_c2_c3 <= 950000.0
  Freight_c2_c4:  k_c4 - k_c2 + 1000000.0 x_c2_c4 <= 950000.0
  Freight_c2_dN:  k_dN - k_c2 + 1000000.0 x_c2_dN <= 950000.0
  Freight_c3_c1:  k_c1 - k_c3 + 1000000.0 x_c3_c1 <= 960000.0
  Freight_c3_c2:  k_c2 - k_c3 + 1000000.0 x_c3_c2 <= 960000.0
  Freight_c3_c4:  k_c4 - k_c3 + 1000000.0 x_c3_c4 <= 960000.0
  Freight_c3_dN:  k_dN - k_c3 + 1000000.0 x_c3_dN <= 960000.0
  Freight_c4_c1:  k_c1 - k_c4 + 1000000.0 x_c4_c1 <= 920000.0
  Freight_c4_c2:  k_c2 - k_c4 + 1000000.0 x_c4_c2 <= 920000.0
  Freight_c4_c3:  k_c3 - k_c4 + 1000000.0 x_c4_c3 <= 920000.0
  Freight_c4_dN:  k_dN - k_c4 + 1000000.0 x_c4_dN <= 920000.0
  FuelDV_d0_c1:  phi_c1 + 67239.0 x_d0_c1 <= 120000.0
  FuelDV_d0_c2:  phi_c2 + 74062.0 x_d0_c2 <= 120000.0
  FuelDV_d0_c3:  phi_c3 + 73179.0 x_d0_c3 <= 120000.0
  FuelDV_d0_c4:  phi_c4 + 74049.0 x_d0_c4 <= 120000.0
  FuelDV_c1_c2:  phi_c2 - phi_c1 + 80612.0 x_c1_c2 + [ phi_c1 * p_1 - 60000.0 x_c1_c2 * p_1 ] <= 60000.0
  FuelDV_c1_c3:  phi_c3 - phi_c1 + 80344.0 x_c1_c3 + [ phi_c1 * p_1 - 60000.0 x_c1_c3 * p_1 ] <= 60000.0
  FuelDV_c1_c4:  phi_c4 - phi_c1 + 79040.0 x_c1_c4 + [ phi_c1 * p_1 - 60000.0 x_c1_c4 * p_1 ] <= 60000.0
  FuelDV_c1_dN:  phi_dN - phi_c1 + 67239.0 x_c1_dN + [ phi_c1 * p_1 - 60000.0 x_c1_dN * p_1 ] <= 60000.0
  FuelDV_c2_c1:  phi_c1 - phi_c2 + 80612.0 x_c2_c1 + [ phi_c2 * p_2 - 60000.0 x_c2_c1 * p_2 ] <= 60000.0
  FuelDV_c2_c3:  phi_c3 - phi_c2 + 65098.0 x_c2_c3 + [ phi_c2 * p_2 - 60000.0 x_c2_c3 * p_2 ] <= 60000.0
  FuelDV_c2_c4:  phi_c4 - phi_c2 + 79401.0 x_c2_c4 + [ phi_c2 * p_2 - 60000.0 x_c2_c4 * p_2 ] <= 60000.0
  FuelDV_c2_dN:  phi_dN - phi_c2 + 74062.0 x_c2_dN + [ phi_c2 * p_2 - 60000.0 x_c2_dN * p_2 ] <= 60000.0
  FuelDV_c3_c1:  phi_c1 - phi_c3 + 80344.0 x_c3_c1 + [ phi_c3 * p_3 - 60000.0 x_c3_c1 * p_3 ] <= 60000.0
  FuelDV_c3_c2:  phi_c2 - phi_c3 + 65098.0 x_c3_c2 + [ phi_c3 * p_3 - 60000.0 x_c3_c2 * p_3 ] <= 60000.0
  FuelDV_c3_c4:  phi_c4 - phi_c3 + 74852.0 x_c3_c4 + [ phi_c3 * p_3 - 60000.0 x_c3_c4 * p_3 ] <= 60000.0
  FuelDV_c3_dN:  phi_dN - phi_c3 + 73179.0 x_c3_dN + [ phi_c3 * p_3 - 60000.0 x_c3_dN * p_3 ] <= 60000.0
  FuelDV_c4_c1:  phi_c1 - phi_c4 + 79040.0 x_c4_c1 + [ phi_c4 * p_4 - 60000.0 x_c4_c1 * p_4 ] <= 60000.0
  FuelDV_c4_c2:  phi_c2 - phi_c4 + 79401.0 x_c4_c2 + [ phi_c4 * p_4 - 60000.0 x_c4_c2 * p_4 ] <= 60000.0
  FuelDV_c4_c3:  phi_c3 - phi_c4 + 74852.0 x_c4_c3 + [ phi_c4 * p_4 - 60000.0 x_c4_c3 * p_4 ] <= 60000.0
  FuelDV_c4_dN:  phi_dN - phi_c4 + 74049.0 x_c4_dN + [ phi_c4 * p_4 - 60000.0 x_c4_dN * p_4 ] <= 60000.0
  FreightSV_c1_c2:  pi_c2 - pi_c1 - phi_c1 + 300000.0 z_c1_c2 <= 240000.0
  FreightSV_c1_c3:  pi_c3 - pi_c1 - phi_c1 + 300000.0 z_c1_c3 <= 240000.0
  FreightSV_c1_c4:  pi_c4 - pi_c1 - phi_c1 + 300000.0 z_c1_c4 <= 240000.0
  FreightSV_c1_dN:  pi_dN - pi_c1 - phi_c1 + 300000.0 z_c1_dN <= 240000.0
  FreightSV_c2_c1:  pi_c1 - pi_c2 - phi_c2 + 300000.0 z_c2_c1 <= 240000.0
  FreightSV_c2_c3:  pi_c3 - pi_c2 - phi_c2 + 300000.0 z_c2_c3 <= 240000.0
  FreightSV_c2_c4:  pi_c4 - pi_c2 - phi_c2 + 300000.0 z_c2_c4 <= 240000.0
  FreightSV_c2_dN:  pi_dN - pi_c2 - phi_c2 + 300000.0 z_c2_dN <= 240000.0
  FreightSV_c3_c1:  pi_c1 - pi_c3 - phi_c3 + 300000.0 z_c3_c1 <= 240000.0
  FreightSV_c3_c2:  pi_c2 - pi_c3 - phi_c3 + 300000.0 z_c3_c2 <= 240000.0
  FreightSV_c3_c4:  pi_c4 - pi_c3 - phi_c3 + 300000.0 z_c3_c4 <= 240000.0
  FreightSV_c3_dN:  pi_dN - pi_c3 - phi_c3 + 300000.0 z_c3_dN <= 240000.0
  FreightSV_c4_c1:  pi_c1 - pi_c4 - phi_c4 + 300000.0 z_c4_c1 <= 240000.0
  FreightSV_c4_c2:  pi_c2 - pi_c4 - phi_c4 + 300000.0 z_c4_c2 <= 240000.0
  FreightSV_c4_c3:  pi_c3 - pi_c4 - phi_c4 + 300000.0 z_c4_c3 <= 240000.0
  FreightSV_c4_dN:  pi_dN - pi_c4 - phi_c4 + 300000.0 z_c4_dN <= 240000.0
  WorkingTimeD_c1:  tauD_c1 + 80000.0 p_1 <= 902950.0
  WorkingTimeD_c2:  tauD_c2 + 80000.0 p_2 <= 907450.0
  WorkingTimeD_c3:  tauD_c3 + 80000.0 p_3 <= 910750.0
  WorkingTimeD_c4:  tauD_c4 + 80000.0 p_4 <= 897500.0
Bounds
0 <= k_c1 <= 1000000.0
0 <= k_c2 <= 1000000.0
0 <= k_c3 <= 1000000.0
0 <= k_c4 <= 1000000.0
0 <= k_dN <= 1000000.0
0 <= phi_c1 <= 60000.0
0 <= phi_c2 <= 60000.0
0 <= phi_c3 <= 60000.0
0 <= phi_c4 <= 60000.0
0 <= phi_dN <= 60000.0
0 <= pi_c1 <= 300000.0
0 <= pi_c2 <= 300000.0
0 <= pi_c3 <= 300000.0
0 <= pi_c4 <= 300000.0
0 <= pi_dN <= 300000.0
0 <= tauD_c1 <= 1000000.0
0 <= tauD_c2 <= 1000000.0
0 <= tauD_c3 <= 1000000.0
0 <= tauD_c4 <= 1000000.0
0 <= tauD_d0 <= 1000000.0
0 <= tauD_dN <= 1000000.0
0 <= tauS_c1 <= 1000000.0
0 <= tauS_c2 <= 1000000.0
0 <= tauS_c3 <= 1000000.0
0 <= tauS_c4 <= 1000000.0
0 <= tauS_d0 <= 1000000.0
0 <= tauS_dN <= 1000000.0
Generals
  k_c1
  k_c2
  k_c3
  k_c4
  k_dN
  phi_c1
  phi_c2
  phi_c3
  phi_c4
  phi_dN
  pi_c1
  pi_c2
  pi_c3
  pi_c4
  pi_dN
  tauD_c1
  tauD_c2
  tauD_c3
  tauD_c4
  tauD_d0
  tauD_dN
  tauS_c1
  tauS_c2
  tauS_c3
  tauS_c4
  tauS_d0
  tauS_dN
Binary
  o_1
  o_2
  o_3
  o_4
  p_1
  p_2
  p_3
  p_4
  x_c1_c2
  x_c1_c3
  x_c1_c4
  x_c1_dN
  x_c2_c1
  x_c2_c3
  x_c2_c4
  x_c2_dN
  x_c3_c1
  x_c3_c2
  x_c3_c4
  x_c3_dN
  x_c4_c1
  x_c4_c2
  x_c4_c3
  x_c4_dN
  x_d0_c1
  x_d0_c2
  x_d0_c3
  x_d0_c4
  z_c1_c2
  z_c1_c3
  z_c1_c4
  z_c1_dN
  z_c2_c1
  z_c2_c3
  z_c2_c4
  z_c2_dN
  z_c3_c1
  z_c3_c2
  z_c3_c4
  z_c3_dN
  z_c4_c1
  z_c4_c2
  z_c4_c3
  z_c4_dN
  z_d0_c1
  z_d0_c2
  z_d0_c3
  z_d0_c4
End
