VRPTWMS/instances/mip/fuel/4/N4-C_DV100-C_SV30_F6_5_No_1.log

Gurobi 6.0.4 (win64) logging started 06/21/15 19:06:15

Read LP format model from file C:\MT\repository\VRPTWMS\instances\mip\fuel\N4-C_DV100-C_SV30_F6_5_No_1.lp
Reading time = 0.01 seconds
(null): 129 rows, 76 columns, 459 nonzeros
Optimize a model with 129 rows, 76 columns and 459 nonzeros
Model has 80 quadratic constraints
Coefficient statistics:
  Matrix range    [1e+00, 1e+06]
  Objective range [8e+04, 1e+07]
  Bounds range    [1e+00, 1e+06]
  RHS range       [1e+00, 1e+06]
Presolve removed 27 rows and 15 columns
Presolve time: 0.03s
Presolved: 233 rows, 131 columns, 994 nonzeros
Variable types: 61 continuous, 70 integer (48 binary)
Found heuristic solution: objective 2.108620e+07

Root relaxation: objective 1.098850e+07, 19 iterations, 0.00 seconds

    Nodes    |    Current Node    |     Objective Bounds      |     Work
 Expl Unexpl |  Obj  Depth IntInf | Incumbent    BestBd   Gap | It/Node Time

     0     0 1.0989e+07    0    1 2.1086e+07 1.0989e+07  47.9%     -    0s
     0     0 1.0989e+07    0    2 2.1086e+07 1.0989e+07  47.9%     -    0s
     0     0 1.1065e+07    0    6 2.1086e+07 1.1065e+07  47.5%     -    0s
     0     0 1.1065e+07    0    6 2.1086e+07 1.1065e+07  47.5%     -    0s
H    0     0                    2.098960e+07 1.1065e+07  47.3%     -    0s
     0     0 1.1065e+07    0    6 2.0990e+07 1.1065e+07  47.3%     -    0s
     0     0 1.1065e+07    0    6 2.0990e+07 1.1065e+07  47.3%     -    0s
     0     0 1.1065e+07    0    8 2.0990e+07 1.1065e+07  47.3%     -    0s
     0     0 1.1159e+07    0   25 2.0990e+07 1.1159e+07  46.8%     -    0s
     0     0 1.1598e+07    0   20 2.0990e+07 1.1598e+07  44.7%     -    0s
     0     0 1.1601e+07    0   14 2.0990e+07 1.1601e+07  44.7%     -    0s
     0     0 1.1601e+07    0   12 2.0990e+07 1.1601e+07  44.7%     -    0s
     0     0 1.1601e+07    0   10 2.0990e+07 1.1601e+07  44.7%     -    0s
     0     2 1.1601e+07    0    8 2.0990e+07 1.1601e+07  44.7%     -    0s

Cutting planes:
  Learned: 1
  Gomory: 1
  Cover: 1
  Implied bound: 4
  Clique: 3
  MIR: 5

Explored 5 nodes (344 simplex iterations) in 0.08 seconds
Thread count was 2 (of 4 available processors)

Optimal solution found (tolerance 1.00e-04)
Best objective 2.098960000000e+07, best bound 2.098960000000e+07, gap 0.0%
k_c1	40000.0
k_c2	130000.0
k_c3	80000.0
k_c4	950000.0
k_dN	-0.0
o_1	0.0
o_2	0.0
o_3	0.0
o_4	0.0
p_1	0.0
p_2	0.0
p_3	0.0
p_4	0.0
phi_c1	7239.0
phi_c2	26550.0
phi_c3	21452.0
phi_c4	45951.0
phi_dN	0.0
pi_c1	0.0
pi_c2	0.0
pi_c3	0.0
pi_c4	0.0
pi_dN	-0.0
tauD_c1	800000.0
tauD_c2	175000.0
tauD_c3	400000.0
tauD_c4	52500.0
tauD_d0	-0.0
tauD_dN	1000000.0
tauS_c1	0.0
tauS_c2	269525.0
tauS_c3	157025.0
tauS_c4	21150.0
tauS_d0	-0.0
tauS_dN	0.0
x_c1_dN	1.0
x_c2_c3	1.0
x_c3_dN	1.0
x_c4_c2	1.0
x_d0_c1	1.0
x_d0_c4	1.0
